# demo for atom style template simulating a cyclohexane methane mixture

units real
boundary p p p
atom_style full
timestep 1
###-------
lattice		sc 15
region          box block 0 5 0 5 0 10
create_box      4 box bond/types 4 angle/types 5 dihedral/types 5 improper/types 3 extra/special/per/atom 30 extra/bond/per/atom 30 extra/angle/per/atom 30 extra/dihedral/per/atom 30 extra/improper/per/atom 30
###-------
molecule ethy ethylene-glycol-copy.mole
###-------
pair_style lj/class2/coul/long 10.0
kspace_style ewald 1.0e-4
neighbor 2.0 bin
neigh_modify every 1 delay 0 check yes
pair_coeff 1 1   0.0748000000   3.8700000000
pair_coeff 2 2   0.0960000000   3.5800000000
pair_coeff 3 3   0.0230000000   2.8780000000
pair_coeff 4 4   0.0080000000   1.0870000000
pair_modify mix geometric tail yes
###-------
bond_style class2
bond_coeff      1     1.5300   299.6700  -501.7700   679.8100 # c4o-c4o
bond_coeff      2     1.4200   400.3954  -835.1951  1313.0142 # c4o-o2h
bond_coeff      3     1.1010   345.0000  -691.8900   844.6000 # c4o-h1
bond_coeff      4     0.9494   540.3633 -1311.8663  2132.4446 # o2h-h1o
###-------
angle_style class2
angle_coeff     1   111.2700    54.5381    -8.3642   -13.0838 # c4o-c4o-o2h
angle_coeff     2   110.7700    41.4530   -10.6040     5.1290 # c4o-c4o-h1
angle_coeff     3   108.7280    58.5446   -10.8088   -12.4006 # o2h-c4o-h1
angle_coeff     4   107.6600    39.6410   -12.9210    -2.4318 # h1-c4o-h1
angle_coeff     5   105.8000    52.7061   -12.1090    -9.8681 # c4o-o2h-h1o
angle_coeff     1 bb    11.4318         1.5300     1.4200 
angle_coeff     2 bb    3.3872          1.5300     1.1010 
angle_coeff     3 bb    23.1979         1.4200     1.1010 
angle_coeff     4 bb    5.3316          1.1010     1.1010 
angle_coeff     5 bb    -9.6879         1.4200     0.9494 
angle_coeff     1 ba    2.6868      20.4033     1.5300     1.4200 
angle_coeff     2 ba    20.7540     11.4210     1.5300     1.1010 
angle_coeff     3 ba    55.3270     4.6189      1.4200     1.1010 
angle_coeff     4 ba    18.1030     18.1030     1.1010     1.1010 
angle_coeff     5 ba    28.5800     18.9277     1.4200     0.9494 
###-------
improper_style class2
improper_coeff  1     0.0000     0.0000 
improper_coeff  2     0.0000     0.0000 
improper_coeff  3     0.0000     0.0000 
improper_coeff  1 aa    0.1689     2.5926     3.9177   111.2700   108.7280   110.7700 
improper_coeff  2 aa    0.2738    -0.4825     0.2738   110.7700   107.6600   110.7700 
improper_coeff  3 aa    2.4259     2.1283     2.4259   108.7280   107.6600   108.7280 
###-------
dihedral_style class2
dihedral_coeff   1     1.1000     0.0000    -0.0500     0.0000    -0.1441     0.0000# o2h-c4o-c4o-o2h
dihedral_coeff   2    -0.1435     0.0000     0.2530     0.0000    -0.0905     0.0000# o2h-c4o-c4o-h1
dihedral_coeff   3    -0.1432     0.0000     0.0617     0.0000    -0.1530     0.0000# h1-c4o-c4o-h1
dihedral_coeff   4    -0.6732     0.0000    -0.4778     0.0000    -0.1670     0.0000# c4o-c4o-o2h-h1o
dihedral_coeff   5     0.1863     0.0000    -0.4338     0.0000    -0.2121     0.0000# h1-c4o-o2h-h1o
dihedral_coeff   1 aat  -14.0484   111.2700   111.2700 
dihedral_coeff   2 aat  -20.2006   111.2700   110.7700 
dihedral_coeff   3 aat  -12.5640   110.7700   110.7700 
dihedral_coeff   4 aat  -12.1038   111.2700   105.8000 
dihedral_coeff   5 aat  -10.5093   108.7280   105.8000 
dihedral_coeff   1 ebt    1.0165     0.7553    -0.4609     1.0165     0.7553    -0.4609     1.4200     1.4200 
dihedral_coeff   2 ebt    0.5903     0.6669     0.8584     0.9681     0.9551     0.0436     1.4200     1.1010 
dihedral_coeff   3 ebt    0.2130     0.3120     0.0777     0.2130     0.3120     0.0777     1.1010     1.1010 
dihedral_coeff   4 ebt   -0.5800     0.9004     0.0000     0.0000     0.5343     0.9025     1.5300     0.9494 
dihedral_coeff   5 ebt   -1.7554     1.3145     0.2263     0.2493     0.6803     0.0000     1.1010     0.9494 
dihedral_coeff   1 mbt  -17.2585    -3.6157    -0.8364     1.5300 
dihedral_coeff   2 mbt  -16.7975    -1.2296    -0.2750     1.5300 
dihedral_coeff   3 mbt  -14.2610    -0.5322    -0.4864     1.5300 
dihedral_coeff   4 mbt    1.2472     0.0000     0.7485     1.4200 
dihedral_coeff   5 mbt    0.0000     0.9241    -0.5889     1.4200 
dihedral_coeff   1 bb13    0.0000     1.4200     1.4200 
dihedral_coeff   2 bb13    0.0000     1.4200     1.1010 
dihedral_coeff   3 bb13    0.0000     1.1010     1.1010 
dihedral_coeff   4 bb13    0.0000     1.5300     0.9494 
dihedral_coeff   5 bb13    0.0000     1.1010     0.9494 
dihedral_coeff   1 at    0.5511     0.9737    -0.6673     0.5511     0.9737    -0.6673   111.2700   111.2700 
dihedral_coeff   2 at   -0.1892     0.4918     0.7273     2.3668     2.4920    -1.0122   111.2700   110.7700 
dihedral_coeff   3 at   -0.8085     0.5569    -0.2466    -0.8085     0.5569    -0.2466   110.7700   110.7700 
dihedral_coeff   4 at   -3.5903     2.5225     0.4888     0.8726    -0.3577     0.3888   111.2700   105.8000 
dihedral_coeff   5 at   -3.4060     1.6396     0.0737     0.0000    -0.2810    -0.5944   108.7280   105.8000 
###-------
mass   1  12.011150 # c2
mass   2  15.999400 # oh
mass   3   1.007970 # h
mass   4   1.007970 # ho
###-------
create_atoms 0 box mol ethy 734594
thermo 100
velocity all create 300.0 6234235
fix 1 all npt temp 300.0 300.0 100 iso 0 0 1000
minimize 1e-6 1e-8 10000 100000
reset_timestep 0
unfix 1 
###-------
fix 1 all npt temp 300.0 300.0 100 iso 1 1 1000
dump 1 all custom 100 ethylene-glycol.lammpstrj id type x y z vx vy vz 
run 1000000
#write_data molecular-mix.data
#write_restart molecular-mix.restart
